p tw 61 68
1 2
2 13
3 4
4 5
5 6
6 7
6 59
7 8
8 9
8 10
9 56
10 11
11 12
12 14
13 24
14 15
15 16
16 17
17 18
18 19
19 20
20 21
20 54
21 22
22 23
23 25
24 35
25 26
25 29
26 27
27 28
27 34
28 48
29 30
30 31
30 15
31 32
32 33
33 15
34 36
35 46
36 37
37 38
38 39
39 40
40 41
41 42
42 43
43 44
43 37
44 45
45 47
46 57
47 56
48 49
49 50
49 15
50 51
51 52
52 53
53 15
54 55
55 56
56 58
57 59
59 60
60 61
61 3
